
 102   30
  10   10   10   10   10   10   10   10   10   10   10   10   10   10   10   10   10   10   10   10   10   10   10   10   10   10   10   10   10   10

   0   0   0   0   0   0   0   0   0   0   0   0   0   0   0   0   0   0   0   0   0   0   0   0   0   0   0   0   0   0   0  28 2 3 4 5 6 7 8 9 10 11 12 13 14 15 17 18 19 20 21 24 25 26 27 29 30 37 39 42 
   6   3   0   0   0   0   1   0   0   0   1   0   0   0   0   0   2   0   0   1   0   0   0   0   4   0   0   0   0   0   1  14 101 78 72 71 70 58 56 54 51 43 41 34 32 23 
   6   0   0   0   0   0   0   0   0   0   0   0   0   0   0   2   0   1   1   0   0   0   0   0   0   0   0   0   0   0   0  15 101 72 70 67 66 57 56 53 52 50 48 40 38 34 22 
   9   0   0   0   2   0   0   0   0   0   0   0   1   0   1   0   0   0   0   9   0   0   0   1   4   1   0   0   0   0  10  10 74 73 72 70 51 48 46 45 28 16 
   5   0   0   0   0   0   0   0   0   0   0   0   0   0   0   5   0   0   7   0   0   1   0   0   0   0   0   0   0   0   0  14 101 99 77 74 73 71 70 67 58 54 45 38 36 31 
   5   0   0   0   0   0   0   0   0   1   0   0   0   0   8   7   0  10   0   0   0   7   0   0   0   0   0   1   0   1   0  10 101 72 58 54 52 48 45 35 33 31 
   6   0   0   0   5   0   0   0   3   0   0   0   3   0   5   0   4   0   0   0   0   0   0   0   4   0   0   0   0   0   0  15 101 87 78 75 74 71 65 64 60 58 57 55 47 34 33 
   2   0   0   0   0   0   0   0   0   0   0   0   0   0   0   6   0   0   0   0   0   0   0   0   0   0   0   0   0   0   0  12 101 99 78 77 70 64 61 57 52 51 33 31 
   2   0   0   0   0   1   0   0   0   0   0   1   0   0   0   0   0   4   6   0   0   0   3   0   0   5   0   0   0   0   0  15 99 95 76 73 72 69 67 66 61 59 57 56 54 38 34 
   6   0   0   0   0   0   0   0   0   0   0   0   0   0   0   0   0   0   0   0   0   0   0   0   0   0   0   0   1   0   0  15 101 98 93 78 77 73 70 63 61 57 56 55 50 43 41 
  10   0   1   0   0   0   0   0   0   0   0   0   0   0   0   0   0   5   9   4   0   0   0   8   0   0   1   0   0   0   0  11 101 96 74 70 66 58 54 44 43 32 31 
   7   0   0   0   0   0   0   0   0   0   0   0   0   1   0   0   0   0   0   0   0   0   0   0   5   0   0   0   0   0   0  16 101 98 93 78 77 75 72 70 65 64 63 62 61 56 51 40 
   2   0   6   0   0   0   4   0   0   0   0   0   0   0   0   0   0   0   0   0   0   0   0   0   0   0   0   7   0   0   0  16 99 93 87 86 78 73 72 70 69 68 65 60 57 50 46 41 
   1   0   0   0   0   0   0   1   0   0   0  10   4   0   0   0   0   0   0   0   1   0   0   0   0   0   0   0   0   0   7   9 75 65 63 62 55 47 44 40 33 
   2   0  10   0   0   4   0   0   0   0   0   0   0   0   0   0   0   0   0   0   0   0   0   4   0   6   0   0   3   0   0  14 89 78 77 75 73 70 68 67 65 63 57 51 46 40 
   2   0   0   0   0   0   0   0   0   0   0   0   0  10   0   0   4   8   0   0  10   0   5   0   0   0   0   0   0   0   0  12 101 99 98 96 95 78 77 69 68 58 55 32 
   9   0   0   0   0   0   0   0   0   0   9   0   0   0   0   0   0   0   0   0   0   0   0   0   4   6   0   0   0   0   0  10 101 99 96 90 70 66 65 61 49 32 
   1   0   0   0   0   0   0   0   0   0   0   0   0   0   0   0   0   0   0   0   7   6   0   0   0   0   0   9   0   7   0  10 101 100 96 92 68 63 61 54 40 38 
   4   0  10   0   0   0   7   0   0   0   0   0   0   0   0   0   0   0   0   9   0   6   0   0  10   0   0   0   0   0   0  12 101 98 97 89 77 70 68 67 66 63 62 36 
   2   0   0   0   0   0   0   0   0   0   0   0   0   0   0   3   0   0   0   0   0   0   0   8   0   0   9   0   0   0   0  14 98 97 95 93 78 72 69 66 61 60 54 53 51 50 
   9   0   0   0   0   8   0   0   0   0   0   0   0   0   0   0   9   0   0   0   0   0   6   0   0   0   0   0   0   0   0  19 101 100 99 98 97 96 93 91 89 87 76 71 69 67 65 63 62 61 60 
   1   0   0   0   0   0   0   0   6   3   0   0   0   6   0   0   0   0   0   0   8   0   9   0   0   0   0   0   0   0   6  16 98 93 90 88 78 77 76 75 71 68 64 63 62 61 60 51 
   2   0   0   0   0   0   0   0   0   0   0   0   0   0   0   0   0   0   0   0   0   7   0   0   0   0   0   0   0   0   6  10 99 95 92 74 69 68 67 63 61 38 
   6   0   0   0   0   0   0   0   0   0   0   0   0   7   0   0   0   0   2   7   0   0   0   0   0   0   0   5   0   0   0  14 97 93 90 85 78 75 72 70 65 62 60 58 56 51 
   5   0   0   0   0   0   0   0   0   0   0   0   0   0   0  10   0   0   0   0   0   0   0   0   0   4   0   0   0   0   0  13 100 99 95 93 88 76 75 64 61 60 57 56 51 
   5   0   0   0   0   0   0   0   0   0   0   0   5   0   0   0   4   0   0   0   0   7   0   0   0   0   0   0   8   0   0   9 99 97 96 93 89 75 55 44 35 
   8   0   0   0   0   0   0   0   0   0   0   0   4   0   0   0  10   9   0   0   0   0  10   0   0   0   0   0   0   0   0  15 99 98 96 93 89 87 85 75 70 69 67 65 63 62 60 
   8   0   5   0   0   0   0   0   0   5   0   0   0   4   0   0   0   0   0   0   0   0   0   0   0   0   0   0   0   0   0   8 99 89 87 76 65 63 61 33 
   5   4   0   0   0   0   0   0   0   0   0   0   0   0   0   0   0   0   0   0   0   0   0   0   0   5   0   0   0   0   0  10 95 90 88 75 64 61 60 59 57 51 
   1   0   0   0   0   6   0   0  10   0   0   0   0   9   0   0   0   0   0   7   0   0   0   0   0   0   0   2   0   0   0  12 100 93 92 91 77 76 75 69 66 64 60 51 
   5   0   0   0   0   0   0   6   0   0   0   0   0   0   0   0   0   0   0   0   0   0   0   0   0   0   0   0   0   5   5  15 100 98 97 95 93 92 91 89 87 75 68 65 63 60 55 
   5   0   0   1   0   0   5   0   0   0   6   0   0   0   0   0   0   0   6   0   0   0   0   0   0   0   0   0   0   0   3  11 100 94 93 87 85 76 75 64 63 60 57 
   4   3   0   0   0   0   0   0   0   0   0   0   0   0   0   5   0   0   7   8   0   0   0   5   4   0   0   0   0   0   5  13 98 97 96 95 94 93 91 88 86 85 80 69 56 
   5   0   0   0   7   0   0   0   0   0   0   0   0   0   0   0   0   0   0   0   0   0   0   0   0   5  10   6   0   0   0  13 98 96 94 93 91 90 88 85 84 83 77 63 62 
   4   0   0   0   0   0   4   0   0   8   0   0   0   8   0   0   0   0   0   0   0   0   0   0   0   0   0   0  10   0  10  11 98 92 87 86 84 80 76 70 69 61 60 
   6   0   0   0   0   0   0   6   0   7   0   0   6   0   0   0   0   0   0   0   0   0   0   0   0   0   0   0   4   0   0   8 95 93 92 80 69 61 60 51 
   3   9   0   5   0   0   6   0   0   0   0   0   0   6   0   0   0   0   0   0   0   0   0   0   5   7   0   0   0   0   0  13 101 100 98 97 95 93 89 85 84 82 69 68 62 
   8   0  10   3   0   0   0   0   0   0   0   0   0   0   0   0   0   0   0   0   0   0   0   0   0   0   0   0   0   0   0   9 98 93 91 87 85 75 65 64 60 
   3   0   5   0   0   0   0   0   0   0   0   0   0   0   0   0   8   0   0   0   0   0   0   0   0   0   0   0   0   0   0  12 99 95 94 93 92 89 87 85 84 76 75 60 
   2   0   5   0   0   0   0   0   0   0   0   0   0   0   0   0   0   0   0   0   0   6   0   8   0   0   0   0   0   0   0  10 99 95 88 87 85 84 76 71 69 60 
   3   0   0   0   0   0   0   0   0   0   0   0   0   9   0   0   0   0   7   0   0   7   0   0   0   0   0   0   0   0   0  10 100 96 94 90 85 83 81 80 66 64 
   9   0   0   0   0   0   0   0   0   0   0   0   0   0   0   0   0   7   0   0   8   0   0   0   0   7   0   0   0   0   0   8 98 93 90 87 84 82 62 61 
   2   0   0   0   0   0   0   0   0   0   0   0   0   5   0   0   0   0   0   0   0   7   0   6   8   0   0   0   0   0   0  13 99 97 95 91 89 88 87 85 84 83 81 80 79 
   6   0   0  10   0   0  10   0   0   0   0   0   0   0   0   0   0   0  10   6   0   0   0   0   5   0   0   0   0   0   0  12 98 95 94 92 91 88 85 84 82 81 79 76 
   9   7   0   0   7   5   0   0   0   0   0   4   0   0   6   0   5   7   4   0   0   0   0   0   0   0   3   0   0   0   8   9 93 92 90 87 85 81 79 75 64 
   1   0   0   0   0   6   0   0   0   0   0   6   9   4   5   0   0   0   0   0   0   6   0   0   0   0   0   0   0   0   0  11 98 96 95 90 88 84 82 81 80 79 76 
   9   0   0   0   0   0   8   0   0   0   0  10   0   0   0   0   0   0   0   0   0   0   0   0   0   7   0   4   0   0   0   9 100 92 90 89 86 82 81 80 61 
   1   0   0   0   0   0   0   0   0   0   0   3   0   0   0   0   0   0   0   0   0   0   0   0   0   0   0   0   0   0   0   8 100 99 92 83 81 79 75 64 
   3   0   0   7   0   0   0   0   0   0   0   0   0   0   0   4   0   0   0   0   6   0   0   0   0   9   0   0   0   0   0   7 100 98 93 87 85 84 68 
   5   0   0   0   0   7   0   0   0   0   0   0   0   0   0   0   0   0   0   0   0   0   0   0   0   0   0   0   8   0   0   7 100 96 94 85 82 79 75 
   1   0   0   0   8   0   0   9   5   0   5   0   0   0   0   6   0   4   0   0   0   0   0   0   0   0   0   0   0   0   0   7 96 94 87 86 84 81 79 
   6   0   0   0   0   0   0   0   0   0   0   0   0   0   0   0  10   0   0   0   0   0   6   6   0   0   0   0   0   7   0   7 96 87 83 82 81 80 79 
   9   7   0   0   0   0   0   0  10   0   5   0   0   0   0   0   0   0  10   0   0   0   0   0   0   0   0   0   0   0   0   5 96 90 86 83 68 
   2   0   0   0   0   0   0   0   0   8   0   0   8   0  10   0   0   0   0   0   0   0   0   0   0   0   0   0   0   0   0   6 94 88 85 84 81 80 
   3   5   0   0   0   0   0   0   0   0   0   6   0   0   0   0   0   0   0   6   0   0   0   0   0   0   0   0   0   6   5   5 88 86 84 80 76 
   3   4   5   0   0   0   0   0   0   0   0   0   0   0   0   0   0   0   0   0   0   0   0   0   0   0   0   0   0   0   0   4 84 83 82 68 
  10   0   0   0   0   6   0   0   0   0   0   0   0   0   0   0   4   0   0   0   0   0   0   7   0   0   0   0   0   0   0   3 91 82 62 
   4   0   0   0   0   0   0   4   0   0   0   0   0   0   0   0   0   0   0   0   5   0   8   0   0   0   0   8   0   0   0   4 84 83 82 80 
   2   0   0   0   0   0   7   3   8   0   0   0   0   0   0   0   0   0   0   0   0   0   0   0   0   0   9   0   0   0   0   4 93 86 80 79 
   7   0   0   0   0   0   0   0   0   0   0   0   0   0   0   0   0   0   0   0   0   0   0   0   0   0   0   0   0   0   0   3 82 81 79 
   8   0   0   9   0   0   0   0   0   0   0   8   0   0   0   0   0   0   0   0   0   0   0   0   0   0   0   0   6   0   0   3 85 83 79 
   6   0   0   0   0   0   0   0   0   0   0   0   0   0   0   0   0   0   0   0   0   0   0   0   0   0   0   0   0   7   0   3 92 81 80 
   2  10   0   0   0   0   0   0   0   0   0   0   0   7   0   0   0   0   0   0   0   0   0   0   0   0   0   0   7   0   0   3 86 82 80 
   4   0   0   0   0   0   0   0   0   0   0   0   0   0   4   8   0   0   0   0   0   0   0   0  10   0   0   0   0   0   0   3 97 89 82 
   9   0   0   0   5   6   0   0   0   0   8   0   0   0   0   0   0   0   0   0   4   0   0   0   0   0   7   0   0   0   0   3 88 84 83 
   1   0   0   7   0   0   0   6  10   0   0   0   4   0   6   0   0   7   0   0   6   0   0   0   0   0   0   0   4   0   0   3 88 84 79 
   1   0   0   0   0   0   0   0   0   0   0   0   0   0   0   0   0   0   0   6   0   0   0   0   0   0   0   0   0   0   0   3 94 90 80 
   8   0   0   0   0   0   5   9   0   5   0   0   0   0   0   0   0   0   0   0   0   0   0   0   0   0   3   0   0   9   6   2 81 79 
   9   0   0   0   0   0   0   0   0   0   0   0   0   0   0   0   0   0   0   0   0   0   0   0   0   0   0   0   0   0   0   2 90 79 
   8   0   0   0   0   0   0   0   0   0   0   0   0   0   0   0   0   0   0   4   0   0   0   7   0   0   0   0   0   0   0   2 95 91 
   2   0   0   0   0   0   0   0   0   0   0   0   0   0   0   0   0   0   0   0   0   0   0   0   0   0   2   0   0   0   0   2 86 80 
  10   0   0   0   0   0   0   0   2   0   0   0   0   0   5   0   0   0   0   0   5   0   0   0   0   0   0   0   0   0   0   2 89 80 
  10   0   0   4   0   0   0   0   2   0   0   0   0   0   4   0   0   3   0   0   4   0   0   0   0   0   0   0   0   0   0   2 82 79 
   8   0   0   0   0   0   0   0   7   0   0   0  10   0   0   0   0   0   0   0   0   0   0   0   0   0   0   6   0   0   0   2 91 80 
   9   0   0   0   0   0   0   6   0   4   7   0   0   0   0   0   0   8   0   0   0   0   0   0   0  10   6   0   0   0   0   1 80 
   3   0   7   0   0   0   6   0   6   0   0   0  10   0   0   0   0   0   0   0   0   5   0   0   0   5  10   0   0   0   0   1 83 
   6   4   0   0   0   7   0   0   0   0   0   0   0   0   0   0   0   0   0   7   0   0   4   0   0   0   0   0   0   0   0   1 79 
   6   5   0   0   0   0   0   0   0   8   0   0   0   0   0   0   0   0   0   0   0   0   0   0   0   3   0   0   0   0   0   1 91 
  10   0   0   0   5   0   0   8   0   0   0   0   0   0   7   0  10   5   0   0   0   0   0   0   0   0   0   0   9   0   0   1 102
  10   0   0   0   0   0   6   0   0   0   0   0   6   0   0   0   2   0   0   5   0   4   0   0   0   5   0   7   0   0   0   1 102
   2   0   0   0  10   8   8   0   2   0   0   0   0   0   6   0   4   0   0   9   8   0   4   6   0   0   0   0   0   0   0   1 102
   4   7   0   0   0   0   0   0   0   0   0   0   0   0   0   0  10   0   4   0   0   8   5   0   0   8   0  10   0   0   0   1 102
   7   0   0   5   0   0   0   0   0   0   7   5   6   0   0   0   0   0   0   8   0   6   0   0   0   0   0   0   0   0   0   1 102
   5   0   0   0   0   0   0   0   0   0   0   5   5   0   0   0   0   0   0   0   0   7   0   0   0   0   0   6   0   0   0   1 102
   8   0   0   0   0   0   0   0   6   0   0   0   0   3   8   0   0   0   0   6   0   0   0   0   0   0   0   7   0   0   0   1 102
   9   0   0   0   5   8   0   0   0   0   0   0   0   0   0   0   0   0   0   0   0   0   0   0   6   0   0   0   0   0   0   1 102
   3   0   0   0   0   0   0   0   0   8   0   0   8   0   0   0   0   0   0   0   0   0   0   0   0   0   6   0   0   0   0   1 102
   4   0   0   0   0   0   0   0   0   0   0   0   0   0   0   0   0   0   0   0   0   0   0   0   0   0   0   0   0   0   0   1 102
   6   0   0   0   0   0   0   0   0   0   0   6   5   0   0   0   0   0   0   0   0   0   0   0   0   0   0   0   0   6   0   1 102
   7  10   3   0   0   0   0   0   0   0   0   0   8   0   0   0   0   0   0   0   0   0   0   0   5   0   0   0   0   0   0   1 102
   4   0   0   0   0   0   0   8   7   0   0   0   0   0   0   0   0   0   0   4   0   0   0   0   0   0   0   0   0   0   0   1 102
   1   0   0   0   0   0   0   6   0   0   0   0   0   0   0   0   0   0   6   0   0   0   0   0   0   6   0   0   0   0   0   1 102
   2   0   0   0   0   0   0   0   0   0   0   0   0   0   0   0   0   0   0   0   0   0   0   0   0   0   0   0   0   0   0   1 102
   3   0   5   8   0   0   0   0   0   0   0   0   0   0   0   0   4   0   0   0   0   0   0   0   6   0   0   0   0   0   0   1 102
   8   0   0   0   0   0   7   0   0   0   0   0   0   0   8   0   0   0   0   0   0   6   0   0  10   0   0   0   0   0   0   1 102
   5   0   0   0   0   0   0   0   0   0   0   8   0   0   5   0   0   0   0   6   0   0   0   0   0   0   0   6   0   0   0   1 102
   5   0   0   0   0   0   0   0   0   0   0   0   0   0   0   0   0   0   8   0   0   0   0   0   0   0   0   0   0   0   0   1 102
   4   0   0   0   0   0   0   0   0   0   0   0   0   0   0   0   0   0   0   0   0   0   0   0   0   0   0   0   0   0   0   1 102
   7   0   0   7   0   0   0   0   0   9   0   0   0   0   0  10   0   0   0   0   0   0   0   0   0   0   0   0   0   0   0   1 102
   4   0   6   0   0   0   0   0   0   0   0   0   0   4   0   0   0   0   5   3   0   0   0   0   0   0   6   0   0   0   0   1 102
   8   0   0   0   0   0   0   0   0   0   0   0   0   7   8   0   0   0   4   5   0   0   0   0   0   9   0   0   0   0   0   1 102
   0   0   0   0   0   0   0   0   0   0   0   0   0   0   0   0   0   0   0   0   0   0   0   0   0   0   0   0   0   0   0   0 
